NAME: ACTUAL_TOURS/amz1743
TYPE: TOUR
COMMENT: RouteID_ba7f79d0-3f9e-4233-82bb-94d25ec060ac
DIMENSION: 79
TOUR_SECTION
59
54
62
3
57
47
60
15
18
48
31
33
9
13
36
51
76
29
30
7
20
58
64
19
14
42
45
75
52
39
17
21
40
4
10
67
41
23
78
50
49
74
73
1
38
5
25
27
12
55
69
44
35
22
26
43
53
68
66
72
63
61
2
46
56
24
11
37
6
34
16
71
8
70
77
32
28
79
65
-1
EOF
